Number of options: 10
Size of codes: 15
6 7 9 8 3 0 9 7 6 5 8 1 9 5 4 
Size of probabilities: 15
0.78 0.07 0.03 0.08 0.04 0.35 0.02 0.04 0.53 0.05 0.08 0.37 0.03 0.07 0.45 
Number of assortments: 3
Sizes of assortments: 5 5 5 
-------------------Iteration: 1
CPXPARAM_MIP_Display                             1
CPXPARAM_MIP_Strategy_CallbackReducedLP          0
Tried aggregator 1 time.
LP Presolve eliminated 16 rows and 31 columns.
All rows and columns eliminated.
Presolve time = 0.00 sec. (0.01 ticks)
***********************************************************
Objective value of restricted master problem: 4.47
Lamda: 1 
***********************************************************
CPXPARAM_MIP_Display                             1
CPXPARAM_MIP_Strategy_CallbackReducedLP          0
Tried aggregator 2 times.
MIP Presolve eliminated 525 rows and 0 columns.
Aggregator did 45 substitutions.
Reduced MIP has 303 rows, 60 columns, and 855 nonzeros.
Reduced MIP has 45 binaries, 0 generals, 0 SOSs, and 0 indicators.
Presolve time = 0.00 sec. (1.76 ticks)
Probing time = 0.00 sec. (0.05 ticks)
Tried aggregator 1 time.
Reduced MIP has 303 rows, 60 columns, and 855 nonzeros.
Reduced MIP has 45 binaries, 0 generals, 0 SOSs, and 0 indicators.
Presolve time = 0.00 sec. (0.53 ticks)
Probing time = 0.00 sec. (0.05 ticks)
MIP emphasis: balance optimality and feasibility.
MIP search method: dynamic search.
Parallel mode: deterministic, using up to 8 threads.

Node log . . .
Best integer =   0.000000e+00  Node =       0  Best node =  -1.500000e+01
Best integer =  -6.000000e+00  Node =       0  Best node =  -1.500000e+01
***********************************************************

***********************************************************
-------------------Iteration: 2
CPXPARAM_MIP_Display                             1
CPXPARAM_MIP_Strategy_CallbackReducedLP          0
Tried aggregator 1 time.
LP Presolve eliminated 9 rows and 18 columns.
Aggregator did 1 substitutions.
Reduced LP has 6 rows, 13 columns, and 18 nonzeros.
Presolve time = 0.00 sec. (0.01 ticks)
Initializing dual steep norms . . .

Iteration log . . .
Iteration:     1   Dual objective     =             3.080000
***********************************************************
Objective value of restricted master problem: 4.31
Lamda: 0.97 0.03 
***********************************************************
CPXPARAM_MIP_Display                             1
CPXPARAM_MIP_Strategy_CallbackReducedLP          0
Tried aggregator 2 times.
MIP Presolve eliminated 525 rows and 0 columns.
Aggregator did 45 substitutions.
Reduced MIP has 303 rows, 60 columns, and 855 nonzeros.
Reduced MIP has 45 binaries, 0 generals, 0 SOSs, and 0 indicators.
Presolve time = 0.00 sec. (1.76 ticks)
Probing time = 0.00 sec. (0.05 ticks)
Tried aggregator 1 time.
Reduced MIP has 303 rows, 60 columns, and 855 nonzeros.
Reduced MIP has 45 binaries, 0 generals, 0 SOSs, and 0 indicators.
Presolve time = 0.00 sec. (0.53 ticks)
Probing time = 0.00 sec. (0.05 ticks)
MIP emphasis: balance optimality and feasibility.
MIP search method: dynamic search.
Parallel mode: deterministic, using up to 8 threads.

Node log . . .
Best integer =   0.000000e+00  Node =       0  Best node =  -1.200000e+01
Best integer =  -6.000000e+00  Node =       0  Best node =  -6.000000e+00
***********************************************************

***********************************************************
-------------------Iteration: 3
CPXPARAM_MIP_Display                             1
CPXPARAM_MIP_Strategy_CallbackReducedLP          0
Tried aggregator 1 time.
LP Presolve eliminated 6 rows and 12 columns.
Reduced LP has 10 rows, 21 columns, and 30 nonzeros.
Presolve time = 0.00 sec. (0.01 ticks)
Initializing dual steep norms . . .

Iteration log . . .
Iteration:     1   Dual objective     =             1.460000
***********************************************************
Objective value of restricted master problem: 1.89
Lamda: 0.37 0.03 0.6 
***********************************************************
CPXPARAM_MIP_Display                             1
CPXPARAM_MIP_Strategy_CallbackReducedLP          0
Tried aggregator 2 times.
MIP Presolve eliminated 525 rows and 0 columns.
Aggregator did 45 substitutions.
Reduced MIP has 303 rows, 60 columns, and 855 nonzeros.
Reduced MIP has 45 binaries, 0 generals, 0 SOSs, and 0 indicators.
Presolve time = 0.00 sec. (1.76 ticks)
Probing time = 0.00 sec. (0.05 ticks)
Tried aggregator 1 time.
Reduced MIP has 303 rows, 60 columns, and 855 nonzeros.
Reduced MIP has 45 binaries, 0 generals, 0 SOSs, and 0 indicators.
Presolve time = 0.00 sec. (0.52 ticks)
Probing time = 0.00 sec. (0.05 ticks)
MIP emphasis: balance optimality and feasibility.
MIP search method: dynamic search.
Parallel mode: deterministic, using up to 8 threads.

Node log . . .
Best integer =   0.000000e+00  Node =       0  Best node =  -9.000000e+00
Best integer =  -4.000000e+00  Node =       0  Best node =  -4.000000e+00
***********************************************************

***********************************************************
-------------------Iteration: 4
CPXPARAM_MIP_Display                             1
CPXPARAM_MIP_Strategy_CallbackReducedLP          0
Tried aggregator 1 time.
LP Presolve eliminated 5 rows and 10 columns.
Reduced LP has 11 rows, 24 columns, and 36 nonzeros.
Presolve time = 0.00 sec. (0.01 ticks)
Initializing dual steep norms . . .

Iteration log . . .
Iteration:     1   Dual objective     =             1.360000
***********************************************************
Objective value of restricted master problem: 1.75
Lamda: 0.32 0.03 0.6 0.05 
***********************************************************
CPXPARAM_MIP_Display                             1
CPXPARAM_MIP_Strategy_CallbackReducedLP          0
Tried aggregator 2 times.
MIP Presolve eliminated 525 rows and 0 columns.
Aggregator did 45 substitutions.
Reduced MIP has 303 rows, 60 columns, and 855 nonzeros.
Reduced MIP has 45 binaries, 0 generals, 0 SOSs, and 0 indicators.
Presolve time = 0.00 sec. (1.76 ticks)
Probing time = 0.00 sec. (0.05 ticks)
Tried aggregator 1 time.
Reduced MIP has 303 rows, 60 columns, and 855 nonzeros.
Reduced MIP has 45 binaries, 0 generals, 0 SOSs, and 0 indicators.
Presolve time = 0.00 sec. (0.52 ticks)
Probing time = 0.00 sec. (0.05 ticks)
MIP emphasis: balance optimality and feasibility.
MIP search method: dynamic search.
Parallel mode: deterministic, using up to 8 threads.

Node log . . .
Best integer =   0.000000e+00  Node =       0  Best node =  -8.000000e+00
Best integer =  -4.000000e+00  Node =       0  Best node =  -4.000000e+00
***********************************************************

***********************************************************
-------------------Iteration: 5
CPXPARAM_MIP_Display                             1
CPXPARAM_MIP_Strategy_CallbackReducedLP          0
Tried aggregator 1 time.
LP Presolve eliminated 4 rows and 8 columns.
Reduced LP has 12 rows, 27 columns, and 42 nonzeros.
Presolve time = 0.00 sec. (0.01 ticks)
Initializing dual steep norms . . .

Iteration log . . .
Iteration:     1   Dual objective     =             0.750000
***********************************************************
Objective value of restricted master problem: 1.29
Lamda: 0.19 0.03 0.15 0.18 0.45 
***********************************************************
CPXPARAM_MIP_Display                             1
CPXPARAM_MIP_Strategy_CallbackReducedLP          0
Tried aggregator 2 times.
MIP Presolve eliminated 525 rows and 0 columns.
Aggregator did 45 substitutions.
Reduced MIP has 303 rows, 60 columns, and 855 nonzeros.
Reduced MIP has 45 binaries, 0 generals, 0 SOSs, and 0 indicators.
Presolve time = 0.00 sec. (1.76 ticks)
Probing time = 0.00 sec. (0.05 ticks)
Tried aggregator 1 time.
Reduced MIP has 303 rows, 60 columns, and 855 nonzeros.
Reduced MIP has 45 binaries, 0 generals, 0 SOSs, and 0 indicators.
Presolve time = 0.00 sec. (0.52 ticks)
Probing time = 0.00 sec. (0.05 ticks)
MIP emphasis: balance optimality and feasibility.
MIP search method: dynamic search.
Parallel mode: deterministic, using up to 8 threads.

Node log . . .
Best integer =   0.000000e+00  Node =       0  Best node =  -8.000000e+00
Best integer =  -4.000000e+00  Node =       0  Best node =  -4.000000e+00
***********************************************************

***********************************************************
-------------------Iteration: 6
CPXPARAM_MIP_Display                             1
CPXPARAM_MIP_Strategy_CallbackReducedLP          0
Tried aggregator 1 time.
LP Presolve eliminated 3 rows and 6 columns.
Reduced LP has 13 rows, 30 columns, and 48 nonzeros.
Presolve time = 0.00 sec. (0.01 ticks)
Initializing dual steep norms . . .

Iteration log . . .
Iteration:     1   Dual objective     =             0.590000
***********************************************************
Objective value of restricted master problem: 0.83
Lamda: 0 0.03 0.15 0.05 0.45 0.32 
***********************************************************
CPXPARAM_MIP_Display                             1
CPXPARAM_MIP_Strategy_CallbackReducedLP          0
Tried aggregator 2 times.
MIP Presolve eliminated 525 rows and 0 columns.
Aggregator did 45 substitutions.
Reduced MIP has 303 rows, 60 columns, and 855 nonzeros.
Reduced MIP has 45 binaries, 0 generals, 0 SOSs, and 0 indicators.
Presolve time = 0.00 sec. (1.76 ticks)
Probing time = 0.00 sec. (0.05 ticks)
Tried aggregator 1 time.
Reduced MIP has 303 rows, 60 columns, and 855 nonzeros.
Reduced MIP has 45 binaries, 0 generals, 0 SOSs, and 0 indicators.
Presolve time = 0.00 sec. (0.52 ticks)
Probing time = 0.00 sec. (0.05 ticks)
MIP emphasis: balance optimality and feasibility.
MIP search method: dynamic search.
Parallel mode: deterministic, using up to 8 threads.

Node log . . .
Best integer =   0.000000e+00  Node =       0  Best node =  -9.000000e+00
Best integer =  -2.000000e+00  Node =       0  Best node =  -2.000000e+00
***********************************************************

***********************************************************
-------------------Iteration: 7
CPXPARAM_MIP_Display                             1
CPXPARAM_MIP_Strategy_CallbackReducedLP          0
Tried aggregator 1 time.
LP Presolve eliminated 3 rows and 6 columns.
Reduced LP has 13 rows, 31 columns, and 52 nonzeros.
Presolve time = 0.00 sec. (0.01 ticks)

Iteration log . . .
Iteration:     1   Dual objective     =             0.180000
***********************************************************
Objective value of restricted master problem: 0.75
Lamda: 0 0.03 0.15 0.05 0.45 0.28 0.04 
***********************************************************
CPXPARAM_MIP_Display                             1
CPXPARAM_MIP_Strategy_CallbackReducedLP          0
Tried aggregator 2 times.
MIP Presolve eliminated 525 rows and 0 columns.
Aggregator did 45 substitutions.
Reduced MIP has 303 rows, 60 columns, and 855 nonzeros.
Reduced MIP has 45 binaries, 0 generals, 0 SOSs, and 0 indicators.
Presolve time = 0.00 sec. (1.76 ticks)
Probing time = 0.00 sec. (0.05 ticks)
Tried aggregator 1 time.
Reduced MIP has 303 rows, 60 columns, and 855 nonzeros.
Reduced MIP has 45 binaries, 0 generals, 0 SOSs, and 0 indicators.
Presolve time = 0.00 sec. (0.52 ticks)
Probing time = 0.00 sec. (0.05 ticks)
MIP emphasis: balance optimality and feasibility.
MIP search method: dynamic search.
Parallel mode: deterministic, using up to 8 threads.

Node log . . .
Best integer =   2.000000e+00  Node =       0  Best node =  -8.000000e+00
Best integer =   0.000000e+00  Node =       0  Best node =  -8.000000e+00
Best integer =  -2.000000e+00  Node =       0  Best node =  -2.000000e+00
***********************************************************

***********************************************************
-------------------Iteration: 8
CPXPARAM_MIP_Display                             1
CPXPARAM_MIP_Strategy_CallbackReducedLP          0
Tried aggregator 1 time.
LP Presolve eliminated 3 rows and 6 columns.
Reduced LP has 13 rows, 32 columns, and 56 nonzeros.
Presolve time = 0.00 sec. (0.01 ticks)

Iteration log . . .
Iteration:     1   Dual objective     =             0.180000
***********************************************************
Objective value of restricted master problem: 0.49
Lamda: 0 0.03 0.15 0.05 0.45 0.08 0.04 0.2 
***********************************************************
CPXPARAM_MIP_Display                             1
CPXPARAM_MIP_Strategy_CallbackReducedLP          0
Tried aggregator 2 times.
MIP Presolve eliminated 525 rows and 0 columns.
Aggregator did 45 substitutions.
Reduced MIP has 303 rows, 60 columns, and 855 nonzeros.
Reduced MIP has 45 binaries, 0 generals, 0 SOSs, and 0 indicators.
Presolve time = 0.00 sec. (1.76 ticks)
Probing time = 0.00 sec. (0.05 ticks)
Tried aggregator 1 time.
Reduced MIP has 303 rows, 60 columns, and 855 nonzeros.
Reduced MIP has 45 binaries, 0 generals, 0 SOSs, and 0 indicators.
Presolve time = 0.00 sec. (0.52 ticks)
Probing time = 0.00 sec. (0.05 ticks)
MIP emphasis: balance optimality and feasibility.
MIP search method: dynamic search.
Parallel mode: deterministic, using up to 8 threads.

Node log . . .
Best integer =   2.000000e+00  Node =       0  Best node =  -7.000000e+00
Best integer =   0.000000e+00  Node =       0  Best node =  -7.000000e+00
Best integer =  -4.000000e+00  Node =       0  Best node =  -4.000000e+00
***********************************************************

***********************************************************
-------------------Iteration: 9
CPXPARAM_MIP_Display                             1
CPXPARAM_MIP_Strategy_CallbackReducedLP          0
Tried aggregator 1 time.
LP Presolve eliminated 2 rows and 4 columns.
Reduced LP has 14 rows, 35 columns, and 62 nonzeros.
Presolve time = 0.00 sec. (0.01 ticks)

Iteration log . . .
Iteration:     1   Dual objective     =             0.110000
***********************************************************
Objective value of restricted master problem: 0.25
Lamda: 0 0.03 0.15 0 0.38 0.08 0.04 0.25 0.07 
***********************************************************
CPXPARAM_MIP_Display                             1
CPXPARAM_MIP_Strategy_CallbackReducedLP          0
Tried aggregator 2 times.
MIP Presolve eliminated 525 rows and 0 columns.
Aggregator did 45 substitutions.
Reduced MIP has 303 rows, 60 columns, and 855 nonzeros.
Reduced MIP has 45 binaries, 0 generals, 0 SOSs, and 0 indicators.
Presolve time = 0.00 sec. (1.76 ticks)
Probing time = 0.00 sec. (0.05 ticks)
Tried aggregator 1 time.
Reduced MIP has 303 rows, 60 columns, and 855 nonzeros.
Reduced MIP has 45 binaries, 0 generals, 0 SOSs, and 0 indicators.
Presolve time = 0.00 sec. (0.52 ticks)
Probing time = 0.00 sec. (0.05 ticks)
MIP emphasis: balance optimality and feasibility.
MIP search method: dynamic search.
Parallel mode: deterministic, using up to 8 threads.

Node log . . .
Best integer =   2.000000e+00  Node =       0  Best node =  -5.000000e+00
Best integer =   0.000000e+00  Node =       0  Best node =  -5.000000e+00
Best integer =  -2.000000e+00  Node =       0  Best node =  -2.500000e+00
***********************************************************

***********************************************************
-------------------Iteration: 10
CPXPARAM_MIP_Display                             1
CPXPARAM_MIP_Strategy_CallbackReducedLP          0
Tried aggregator 1 time.
LP Presolve eliminated 2 rows and 4 columns.
Reduced LP has 14 rows, 36 columns, and 66 nonzeros.
Presolve time = 0.00 sec. (0.01 ticks)

Iteration log . . .
Iteration:     1   Dual objective     =             0.110000
***********************************************************
Objective value of restricted master problem: 0.23
Lamda: 0 0.03 0.15 0 0.37 0.08 0.04 0.25 0.07 0.01 
***********************************************************
CPXPARAM_MIP_Display                             1
CPXPARAM_MIP_Strategy_CallbackReducedLP          0
Tried aggregator 2 times.
MIP Presolve eliminated 525 rows and 0 columns.
Aggregator did 45 substitutions.
Reduced MIP has 303 rows, 60 columns, and 855 nonzeros.
Reduced MIP has 45 binaries, 0 generals, 0 SOSs, and 0 indicators.
Presolve time = 0.00 sec. (1.76 ticks)
Probing time = 0.00 sec. (0.05 ticks)
Tried aggregator 1 time.
Reduced MIP has 303 rows, 60 columns, and 855 nonzeros.
Reduced MIP has 45 binaries, 0 generals, 0 SOSs, and 0 indicators.
Presolve time = 0.00 sec. (0.52 ticks)
Probing time = 0.00 sec. (0.05 ticks)
MIP emphasis: balance optimality and feasibility.
MIP search method: dynamic search.
Parallel mode: deterministic, using up to 8 threads.

Node log . . .
Best integer =   0.000000e+00  Node =       0  Best node =  -4.000000e+00
Best integer =  -4.000000e+00  Node =       0  Best node =  -4.000000e+00
***********************************************************

***********************************************************
-------------------Iteration: 11
CPXPARAM_MIP_Display                             1
CPXPARAM_MIP_Strategy_CallbackReducedLP          0
Tried aggregator 1 time.
No LP presolve or aggregator reductions.
Presolve time = 0.00 sec. (0.01 ticks)

Iteration log . . .
Iteration:     1   Dual objective     =             0.000000
***********************************************************
Objective value of restricted master problem: 0.11
Lamda: 0 0.03 0.11 0 0.35 0.08 0 0.29 0.05 0.05 0.04 
***********************************************************
CPXPARAM_MIP_Display                             1
CPXPARAM_MIP_Strategy_CallbackReducedLP          0
Tried aggregator 2 times.
MIP Presolve eliminated 525 rows and 0 columns.
Aggregator did 45 substitutions.
Reduced MIP has 303 rows, 60 columns, and 855 nonzeros.
Reduced MIP has 45 binaries, 0 generals, 0 SOSs, and 0 indicators.
Presolve time = 0.00 sec. (1.76 ticks)
Probing time = 0.00 sec. (0.05 ticks)
Tried aggregator 1 time.
Reduced MIP has 303 rows, 60 columns, and 855 nonzeros.
Reduced MIP has 45 binaries, 0 generals, 0 SOSs, and 0 indicators.
Presolve time = 0.00 sec. (0.53 ticks)
Probing time = 0.00 sec. (0.05 ticks)
MIP emphasis: balance optimality and feasibility.
MIP search method: dynamic search.
Parallel mode: deterministic, using up to 8 threads.

Node log . . .
Best integer =   0.000000e+00  Node =       0  Best node =  -5.000000e+00
Best integer =  -4.000000e+00  Node =       0  Best node =  -4.000000e+00
***********************************************************

***********************************************************
-------------------Iteration: 12
CPXPARAM_MIP_Display                             1
CPXPARAM_MIP_Strategy_CallbackReducedLP          0
Tried aggregator 1 time.
No LP presolve or aggregator reductions.
Presolve time = 0.00 sec. (0.01 ticks)

Iteration log . . .
Iteration:     1   Dual objective     =             0.000000
***********************************************************
Objective value of restricted master problem: 0.01
Lamda: 0 0.03 0.08 0.01 0.32 0.08 0 0.28 0.04 0.09 0.04 0.03 
***********************************************************
CPXPARAM_MIP_Display                             1
CPXPARAM_MIP_Strategy_CallbackReducedLP          0
Tried aggregator 2 times.
MIP Presolve eliminated 525 rows and 0 columns.
Aggregator did 45 substitutions.
Reduced MIP has 303 rows, 60 columns, and 855 nonzeros.
Reduced MIP has 45 binaries, 0 generals, 0 SOSs, and 0 indicators.
Presolve time = 0.00 sec. (1.76 ticks)
Probing time = 0.00 sec. (0.05 ticks)
Tried aggregator 1 time.
Reduced MIP has 303 rows, 60 columns, and 855 nonzeros.
Reduced MIP has 45 binaries, 0 generals, 0 SOSs, and 0 indicators.
Presolve time = 0.00 sec. (0.52 ticks)
Probing time = 0.00 sec. (0.05 ticks)
MIP emphasis: balance optimality and feasibility.
MIP search method: dynamic search.
Parallel mode: deterministic, using up to 8 threads.

Node log . . .
Best integer =   0.000000e+00  Node =       0  Best node =  -1.000000e+00
Best integer =  -1.000000e+00  Node =       0  Best node =  -1.000000e+00
***********************************************************

***********************************************************
-------------------Iteration: 13
CPXPARAM_MIP_Display                             1
CPXPARAM_MIP_Strategy_CallbackReducedLP          0
Tried aggregator 1 time.
No LP presolve or aggregator reductions.
Presolve time = 0.00 sec. (0.01 ticks)

Iteration log . . .
Iteration:     1   Dual objective     =             0.000000
***********************************************************
Objective value of restricted master problem: 0.01
Lamda: 0 0.03 0.08 0.01 0.32 0.08 0 0.28 0.04 0.09 0.04 0.03 0 
***********************************************************
CPXPARAM_MIP_Display                             1
CPXPARAM_MIP_Strategy_CallbackReducedLP          0
Tried aggregator 2 times.
MIP Presolve eliminated 525 rows and 0 columns.
Aggregator did 45 substitutions.
Reduced MIP has 303 rows, 60 columns, and 855 nonzeros.
Reduced MIP has 45 binaries, 0 generals, 0 SOSs, and 0 indicators.
Presolve time = 0.00 sec. (1.76 ticks)
Probing time = 0.00 sec. (0.05 ticks)
Tried aggregator 1 time.
Reduced MIP has 303 rows, 60 columns, and 855 nonzeros.
Reduced MIP has 45 binaries, 0 generals, 0 SOSs, and 0 indicators.
Presolve time = 0.00 sec. (0.52 ticks)
Probing time = 0.00 sec. (0.05 ticks)
MIP emphasis: balance optimality and feasibility.
MIP search method: dynamic search.
Parallel mode: deterministic, using up to 8 threads.

Node log . . .
Best integer =   0.000000e+00  Node =       0  Best node =  -1.000000e+00
Best integer =  -1.000000e+00  Node =       0  Best node =  -1.000000e+00
***********************************************************

***********************************************************
-------------------Iteration: 14
CPXPARAM_MIP_Display                             1
CPXPARAM_MIP_Strategy_CallbackReducedLP          0
Tried aggregator 1 time.
No LP presolve or aggregator reductions.
Presolve time = 0.00 sec. (0.01 ticks)

Iteration log . . .
Iteration:     1   Dual objective     =             0.000000
***********************************************************
Objective value of restricted master problem: 0.01
Lamda: 0 0.03 0.08 0.01 0.32 0.08 0 0.28 0.04 0.09 0.04 0.03 0 0 
***********************************************************
CPXPARAM_MIP_Display                             1
CPXPARAM_MIP_Strategy_CallbackReducedLP          0
Tried aggregator 2 times.
MIP Presolve eliminated 525 rows and 0 columns.
Aggregator did 45 substitutions.
Reduced MIP has 303 rows, 60 columns, and 855 nonzeros.
Reduced MIP has 45 binaries, 0 generals, 0 SOSs, and 0 indicators.
Presolve time = 0.00 sec. (1.76 ticks)
Probing time = 0.00 sec. (0.05 ticks)
Tried aggregator 1 time.
Reduced MIP has 303 rows, 60 columns, and 855 nonzeros.
Reduced MIP has 45 binaries, 0 generals, 0 SOSs, and 0 indicators.
Presolve time = 0.00 sec. (0.52 ticks)
Probing time = 0.00 sec. (0.05 ticks)
MIP emphasis: balance optimality and feasibility.
MIP search method: dynamic search.
Parallel mode: deterministic, using up to 8 threads.

Node log . . .
Best integer =   1.000000e+00  Node =       0  Best node =  -2.000000e+00
Best integer =   0.000000e+00  Node =       0  Best node =  -2.000000e+00
Best integer =  -2.000000e+00  Node =       0  Best node =  -2.000000e+00
***********************************************************

***********************************************************
-------------------Iteration: 15
CPXPARAM_MIP_Display                             1
CPXPARAM_MIP_Strategy_CallbackReducedLP          0
Tried aggregator 1 time.
No LP presolve or aggregator reductions.
Presolve time = 0.00 sec. (0.01 ticks)

Iteration log . . .
Iteration:     1   Dual objective     =             0.000000
***********************************************************
Objective value of restricted master problem: 0.01
Lamda: 0 0.02 0.08 0.02 0.31 0.08 0 0.26 0.03 0.11 0.035 0.035 0.01 0.005 0.005 
***********************************************************
CPXPARAM_MIP_Display                             1
CPXPARAM_MIP_Strategy_CallbackReducedLP          0
Tried aggregator 2 times.
MIP Presolve eliminated 525 rows and 0 columns.
Aggregator did 45 substitutions.
Reduced MIP has 303 rows, 60 columns, and 855 nonzeros.
Reduced MIP has 45 binaries, 0 generals, 0 SOSs, and 0 indicators.
Presolve time = 0.00 sec. (1.76 ticks)
Probing time = 0.00 sec. (0.05 ticks)
Tried aggregator 1 time.
Reduced MIP has 303 rows, 60 columns, and 855 nonzeros.
Reduced MIP has 45 binaries, 0 generals, 0 SOSs, and 0 indicators.
Presolve time = 0.00 sec. (0.53 ticks)
Probing time = 0.00 sec. (0.05 ticks)
MIP emphasis: balance optimality and feasibility.
MIP search method: dynamic search.
Parallel mode: deterministic, using up to 8 threads.

Node log . . .
Best integer =   0.000000e+00  Node =       0  Best node =  -1.000000e+00
Ranking data list: 
Ranking collect: 0 1 2 3 4 5 6 7 8 9 
Ranking collect: 9 8 7 6 5 4 3 2 1 0 
Ranking collect: 2 6 0 3 7 8 1 4 5 9 
Ranking collect: 1 2 4 5 0 6 3 7 8 9 
Ranking collect: 0 2 4 1 5 6 3 7 8 9 
Ranking collect: 1 2 4 8 3 6 0 5 7 9 
Ranking collect: 1 2 3 4 6 0 5 7 8 9 
Ranking collect: 1 2 4 6 0 3 5 7 8 9 
Ranking collect: 2 4 1 5 0 7 3 6 8 9 
Ranking collect: 2 4 1 6 7 9 0 5 3 8 
Ranking collect: 2 3 7 0 5 1 4 6 8 9 
Ranking collect: 0 2 5 1 4 7 3 6 8 9 
Ranking collect: 0 1 2 4 5 9 3 6 7 8 
Ranking collect: 0 2 3 6 7 9 1 4 5 8 
Ranking collect: 2 7 0 3 6 9 1 4 5 8 
